c generated by sgen
p cnf 121 252
-2 -3 -4 0
-1 -3 -4 0
-1 -2 -4 0
-1 -2 -3 0
-6 -7 -8 0
-5 -7 -8 0
-5 -6 -8 0
-5 -6 -7 0
-10 -11 -12 0
-9 -11 -12 0
-9 -10 -12 0
-9 -10 -11 0
-14 -15 -16 0
-13 -15 -16 0
-13 -14 -16 0
-13 -14 -15 0
-18 -19 -20 0
-17 -19 -20 0
-17 -18 -20 0
-17 -18 -19 0
-22 -23 -24 0
-21 -23 -24 0
-21 -22 -24 0
-21 -22 -23 0
-26 -27 -28 0
-25 -27 -28 0
-25 -26 -28 0
-25 -26 -27 0
-30 -31 -32 0
-29 -31 -32 0
-29 -30 -32 0
-29 -30 -31 0
-34 -35 -36 0
-33 -35 -36 0
-33 -34 -36 0
-33 -34 -35 0
-38 -39 -40 0
-37 -39 -40 0
-37 -38 -40 0
-37 -38 -39 0
-42 -43 -44 0
-41 -43 -44 0
-41 -42 -44 0
-41 -42 -43 0
-46 -47 -48 0
-45 -47 -48 0
-45 -46 -48 0
-45 -46 -47 0
-50 -51 -52 0
-49 -51 -52 0
-49 -50 -52 0
-49 -50 -51 0
-54 -55 -56 0
-53 -55 -56 0
-53 -54 -56 0
-53 -54 -55 0
-58 -59 -60 0
-57 -59 -60 0
-57 -58 -60 0
-57 -58 -59 0
-62 -63 -64 0
-61 -63 -64 0
-61 -62 -64 0
-61 -62 -63 0
-66 -67 -68 0
-65 -67 -68 0
-65 -66 -68 0
-65 -66 -67 0
-70 -71 -72 0
-69 -71 -72 0
-69 -70 -72 0
-69 -70 -71 0
-74 -75 -76 0
-73 -75 -76 0
-73 -74 -76 0
-73 -74 -75 0
-78 -79 -80 0
-77 -79 -80 0
-77 -78 -80 0
-77 -78 -79 0
-82 -83 -84 0
-81 -83 -84 0
-81 -82 -84 0
-81 -82 -83 0
-86 -87 -88 0
-85 -87 -88 0
-85 -86 -88 0
-85 -86 -87 0
-90 -91 -92 0
-89 -91 -92 0
-89 -90 -92 0
-89 -90 -91 0
-94 -95 -96 0
-93 -95 -96 0
-93 -94 -96 0
-93 -94 -95 0
-98 -99 -100 0
-97 -99 -100 0
-97 -98 -100 0
-97 -98 -99 0
-102 -103 -104 0
-101 -103 -104 0
-101 -102 -104 0
-101 -102 -103 0
-106 -107 -108 0
-105 -107 -108 0
-105 -106 -108 0
-105 -106 -107 0
-110 -111 -112 0
-109 -111 -112 0
-109 -110 -112 0
-109 -110 -111 0
-114 -115 -116 0
-113 -115 -116 0
-113 -114 -116 0
-113 -114 -115 0
-117 -118 -119 0
-117 -118 -120 0
-117 -118 -121 0
-117 -119 -120 0
-117 -119 -121 0
-117 -120 -121 0
-118 -119 -120 0
-118 -119 -121 0
-118 -120 -121 0
-119 -120 -121 0
34 68 41 0
99 68 41 0
99 34 41 0
99 34 68 0
112 30 86 0
28 30 86 0
28 112 86 0
28 112 30 0
62 25 47 0
94 25 47 0
94 62 47 0
94 62 25 0
116 57 6 0
96 57 6 0
96 116 6 0
96 116 57 0
56 95 83 0
65 95 83 0
65 56 83 0
65 56 95 0
4 106 89 0
64 106 89 0
64 4 89 0
64 4 106 0
77 69 22 0
59 69 22 0
59 77 22 0
59 77 69 0
54 37 110 0
51 37 110 0
51 54 110 0
51 54 37 0
70 76 66 0
92 76 66 0
92 70 66 0
92 70 76 0
38 32 60 0
108 32 60 0
108 38 60 0
108 38 32 0
8 40 24 0
1 40 24 0
1 8 24 0
1 8 40 0
49 63 53 0
118 63 53 0
118 49 53 0
118 49 63 0
79 85 10 0
102 85 10 0
102 79 10 0
102 79 85 0
115 104 36 0
117 104 36 0
117 115 36 0
117 115 104 0
78 46 5 0
121 46 5 0
121 78 5 0
121 78 46 0
111 43 113 0
82 43 113 0
82 111 113 0
82 111 43 0
75 27 21 0
98 27 21 0
98 75 21 0
98 75 27 0
39 35 88 0
90 35 88 0
90 39 88 0
90 39 35 0
33 107 14 0
9 107 14 0
9 33 14 0
9 33 107 0
73 109 80 0
93 109 80 0
93 73 80 0
93 73 109 0
87 72 13 0
61 72 13 0
61 87 13 0
61 87 72 0
100 52 105 0
81 52 105 0
81 100 105 0
81 100 52 0
119 29 23 0
16 29 23 0
16 119 23 0
16 119 29 0
42 7 55 0
20 7 55 0
20 42 55 0
20 42 7 0
101 2 26 0
17 2 26 0
17 101 26 0
17 101 2 0
74 15 84 0
18 15 84 0
18 74 84 0
18 74 15 0
58 3 120 0
12 3 120 0
12 58 120 0
12 58 3 0
71 50 44 0
103 50 44 0
103 71 44 0
103 71 50 0
48 91 97 0
11 91 97 0
11 48 97 0
11 48 91 0
19 31 67 0
19 31 114 0
19 31 45 0
19 67 114 0
19 67 45 0
19 114 45 0
31 67 114 0
31 67 45 0
31 114 45 0
67 114 45 0
